Automatic generation
0
Monkhorst-Pack
12 8 12
0 0 0
