Generated by cif2cell 1.0.12 from COD reference: 1011099.  :  Brager, A, Acta Physicochimica (USSR) 9, 617-632 (1939).
   4.244000
  0.000000000000000   0.500000000000000   0.500000000000000
  0.500000000000000   0.000000000000000   0.500000000000000
  0.500000000000000   0.500000000000000   0.000000000000000
   N  Ti
   1   1
Direct
  0.500000000000000   0.500000000000000   0.500000000000000 
  0.000000000000000   0.000000000000000   0.000000000000000 
