LWAVE=.FALSE.
LCHARG=.TRUE.
ISTART=0
ICHARG=2
LORBIT=11
LMAXMIX=6

ISPIN=2

ALGO=Normal
PREC=Accurate
ENCUT=600
ENAUG=900
LREAL=Auto
LASPH=.TRUE.
ADDGRID=.FALSE.
SYMPREC=1e-4

ISMEAR=-5

NELMIN=5
# EDIFF AND EDIFFG IS SET BY VASP_PREPARE_INCAR
NSW=20
MAXMIX=80
NFREE=10

NELM=40

IBRION=1
ISIF=3
