LWAVE=.FALSE.
LCHARG=.TRUE.
ISTART=0
ICHARG=2
LORBIT=11
LMAXMIX=6

ISPIN=2

ALGO=Normal
PREC=Accurate
ENCUT=500
ENAUG=900
LREAL=.FALSE.
LASPH=.TRUE.
ADDGRID=.FALSE.
SYMPREC=1e-5

ISMEAR=0
SIGMA=0.05

# EDIFF AND EDIFFG IS SET BY VASP_PREPARE_INCAR
NELMIN=5
MAXMIX=80
NELM=40
NFREE=10

# Only relax the cell, keep ideal atomic positions:
NSW=40
IBRION=1
ISIF=3

# Parallelization options:
NCORE=1

EDIFFG=-0.001
