#------------------------------------------------------------------------------
#$Date: 2013-10-30 10:44:42 +0000 (Wed, 30 Oct 2013) $
#$Revision: 89486 $
#$URL: file:///home/coder/svn-repositories/cod/cif/1/51/25/1512547.cif $
#------------------------------------------------------------------------------
#
# This file is available in the Crystallography Open Database (COD),
# http://www.crystallography.net/
#
# All data on this site have been placed in the public domain by the
# contributors.
#
data_1512547
loop_
_publ_author_name
'Lejaeghere, K.'
'Van Speybroeck, V.'
'Van Oost, G.'
'Cottenier, S.'
_publ_section_title
;
 Error Estimates for Solid-State Density-Functional Theory Predictions: An
 Overview by Means of the Ground-State Elemental Crystals
;
_journal_issue                   1
_journal_name_full
'Critical Reviews in Solid State and Materials Sciences'
_journal_page_first              1
_journal_paper_doi               10.1080/10408436.2013.772503
_journal_volume                  39
_journal_year                    2014
_chemical_formula_sum            Ti
_space_group_IT_number           194
_symmetry_Int_Tables_number      194
_symmetry_space_group_name_Hall  '-P 6c 2c'
_symmetry_space_group_name_H-M   'P 63/m m c'
_cell_angle_alpha                90
_cell_angle_beta                 90
_cell_angle_gamma                120
_cell_formula_units_Z            2
_cell_length_a                   2.93664
_cell_length_b                   2.93664
_cell_length_c                   4.65193
_cell_volume                     34.743
_[local]_cod_data_source_file    Ti.cif
_[local]_cod_data_source_block   VESTA_phase_1
_cod_database_code               1512547
loop_
_symmetry_equiv_pos_as_xyz
'x, y, z'
'-x, -y, -z'
'-y, x-y, z'
'y, -x+y, -z'
'-x+y, -x, z'
'x-y, x, -z'
'-x, -y, z+1/2'
'x, y, -z+1/2'
'y, -x+y, z+1/2'
'-y, x-y, -z+1/2'
'x-y, x, z+1/2'
'-x+y, -x, -z+1/2'
'y, x, -z'
'-y, -x, z'
'x-y, -y, -z'
'-x+y, y, z'
'-x, -x+y, -z'
'x, x-y, z'
'-y, -x, -z+1/2'
'y, x, z+1/2'
'-x+y, y, -z+1/2'
'x-y, -y, z+1/2'
'x, x-y, -z+1/2'
'-x, -x+y, z+1/2'
loop_
_atom_site_label
_atom_site_occupancy
_atom_site_fract_x
_atom_site_fract_y
_atom_site_fract_z
_atom_site_adp_type
_atom_site_B_iso_or_equiv
_atom_site_type_symbol
Ti001 1.0 0.333333 0.666667 0.750000 Biso 1.000000 Ti
