['(Tag) atomic_relaxations: True', '(Tag) symmetry: hexagonal']
-34.71385172
-2.93381380 0.00000000 0.00000000
0.00000000 0.00000000 -4.65700900
1.46690690 -2.54075728 0.00000000
Ti 
2 
D
0.66666667 0.75000000 0.33333333
0.33333333 0.25000000 0.66666667
