SYSTEM=$name

ALGO=Fast
LORBIT=11
ISIF=3
SYSTEM=$name
NELM=100
LREAL=Auto
IBRION=2
EDIFF=1E-6
EDIFFG=1E-4
NSW=200
PREC=high
NELMIN=3
ISMEAR=-5
ICHARG=1
ISPIN=2
SIGMA=0.05
NPAR=1
LWAVE=.FALSE.

EDIFF=1E-6
EDIFFG=1E-4

MAGMOM=$(VASP_MAGMOM)
