# CIF file
# This is a cif file prepared for use with the openmaterialsdb.se
#
# The cif file was imported from the Crystallography Open Database (COD)
# http://www.crystallography.net/
# based on data placed in the public domain by the contributors.
#
# The original file in cod had 
#COD-MD5: 5316ffc52e3da83fb67fa6f2b81b91ae
#
# It was then processed with the FINDSYM tool by
# Harold T. Stokes, Branton J. Campbell, Dorian M. Hatch
# Brigham Young University, Provo, Utah, USA
# which was used to update the structure information.
#
# The original header in COD and relevant COD data follows:
#------------------------------------------------------------------------------
#$Date: 2013-05-05 14:21:46 +0000 (Sun, 05 May 2013) $
#$Revision: 85285 $
#$URL: file:///home/coder/svn-repositories/cod/cif/9/01/13/9011303.cif $
#------------------------------------------------------------------------------
data_9011303
loop_
_publ_author_name
'Milman, V.'
_publ_section_title
;
 Klockmannite, CuSe: structure, properties and phase stability from ab initio
 modeling
 Locality: hypothetical structure calculated using DFT
;
_journal_name_full               'Acta Crystallographica, Section B'
_journal_page_first              437
_journal_page_last               447
_journal_volume                  58
_journal_year                    2002
_chemical_name_mineral           Umangite
_exptl_crystal_density_diffrn    6.688
_cod_database_code               9011303

#
# Data extracted using the FINDSYM utility follows
#
 
_audit_creation_method FINDSYM
 
_symmetry_space_group_name_H-M "P -4 21 m"
_symmetry_space_group_name_Hall 'P -4 2ab'
_[local]_omdb_cod_original_Hall 'P -4 2ab'
_symmetry_Int_Tables_number 113
 
_cell_length_a    6.30800
_cell_length_b    6.30800
_cell_length_c    4.35000
_cell_angle_alpha 90.00000
_cell_angle_beta  90.00000
_cell_angle_gamma 90.00000
 
loop_
_space_group_symop_id
_space_group_symop_operation_xyz
1 x,y,z
2 x+1/2,-y+1/2,-z
3 -x+1/2,y+1/2,-z
4 -x,-y,z
5 y+1/2,x+1/2,z
6 y,-x,-z
7 -y,x,-z
8 -y+1/2,-x+1/2,z
 
loop_
_atom_site_label
_atom_site_type_symbol
_atom_site_symmetry_multiplicity
_atom_site_Wyckoff_label
_atom_site_fract_x
_atom_site_fract_y
_atom_site_fract_z
_atom_site_occupancy
Cu1 Cu 2 a 0.00000 0.00000 0.00000 1.0
Cu2 Cu 4 e 0.64300 0.14300 0.75250 1.0
Se1 Se 4 e 0.76550 0.26550 0.25860 1.0
 

