# CIF file
# This is a cif file prepared for use with the openmaterialsdb.se
#
# The cif file was imported from the Crystallography Open Database (COD)
# http://www.crystallography.net/
# based on data placed in the public domain by the contributors.
#
# The original file in cod had 
#COD-MD5: 8d58303a53f0e736e1f49104f3425a68
#
# It was then processed with the FINDSYM tool by
# Harold T. Stokes, Branton J. Campbell, Dorian M. Hatch
# Brigham Young University, Provo, Utah, USA
# which was used to update the structure information.
#
# The original header in COD and relevant COD data follows:
#------------------------------------------------------------------------------
#$Date: 2013-10-30 10:44:20 +0000 (Wed, 30 Oct 2013) $
#$Revision: 89485 $
#$URL: file:///home/coder/svn-repositories/cod/cif/1/51/25/1512546.cif $
#------------------------------------------------------------------------------
data_1512546
loop_
_publ_author_name
'Lejaeghere, K.'
'Van Speybroeck, V.'
'Van Oost, G.'
'Cottenier, S.'
_publ_section_title
;
 Error Estimates for Solid-State Density-Functional Theory Predictions: An
 Overview by Means of the Ground-State Elemental Crystals
;
_journal_issue                   1
_journal_name_full
'Critical Reviews in Solid State and Materials Sciences'
_journal_page_first              1
_journal_paper_doi               10.1080/10408436.2013.772503
_journal_volume                  39
_journal_year                    2014
_[local]_cod_data_source_file    Te.cif
_[local]_cod_data_source_block   VESTA_phase_1
_cod_database_code               1512546

#
# Data extracted using the FINDSYM utility follows
#
 
_audit_creation_method FINDSYM
 
_symmetry_space_group_name_H-M "P 31 2 1"
_symmetry_space_group_name_Hall 'P 31 2"'
_[local]_omdb_cod_original_Hall 'P 31 2"'
_symmetry_Int_Tables_number 152
 
_cell_length_a    4.50788
_cell_length_b    4.50788
_cell_length_c    5.96346
_cell_angle_alpha 90.00000
_cell_angle_beta  90.00000
_cell_angle_gamma 120.00000
 
loop_
_space_group_symop_id
_space_group_symop_operation_xyz
1 x,y,z
2 -y,x-y,z+1/3
3 -x+y,-x,z+2/3
4 x-y,-y,-z+2/3
5 y,x,-z
6 -x,-x+y,-z+1/3
 
loop_
_atom_site_label
_atom_site_type_symbol
_atom_site_symmetry_multiplicity
_atom_site_Wyckoff_label
_atom_site_fract_x
_atom_site_fract_y
_atom_site_fract_z
_atom_site_occupancy
Te1 Te 3 a 0.26966 0.00000 0.33333 1.0
 

