# CIF file
# This is a cif file prepared for use with the openmaterialsdb.se
#
# The cif file was imported from the Crystallography Open Database (COD)
# http://www.crystallography.net/
# based on data placed in the public domain by the contributors.
#
# The original file in cod had 
#COD-MD5: 929354c271b4e0180c70b693238a423f
#
# It was then processed with the FINDSYM tool by
# Harold T. Stokes, Branton J. Campbell, Dorian M. Hatch
# Brigham Young University, Provo, Utah, USA
# which was used to update the structure information.
#
# The original header in COD and relevant COD data follows:
#------------------------------------------------------------------------------
#$Date: 2013-10-30 10:47:17 +0000 (Wed, 30 Oct 2013) $
#$Revision: 89493 $
#$URL: file:///home/coder/svn-repositories/cod/cif/1/51/25/1512554.cif $
#------------------------------------------------------------------------------
data_1512554
loop_
_publ_author_name
'Lejaeghere, K.'
'Van Speybroeck, V.'
'Van Oost, G.'
'Cottenier, S.'
_publ_section_title
;
 Error Estimates for Solid-State Density-Functional Theory Predictions: An
 Overview by Means of the Ground-State Elemental Crystals
;
_journal_issue                   1
_journal_name_full
'Critical Reviews in Solid State and Materials Sciences'
_journal_page_first              1
_journal_paper_doi               10.1080/10408436.2013.772503
_journal_volume                  39
_journal_year                    2014
_[local]_cod_data_source_file    Zr.cif
_[local]_cod_data_source_block   VESTA_phase_1
_cod_database_code               1512554

#
# Data extracted using the FINDSYM utility follows
#
 
_audit_creation_method FINDSYM
 
_symmetry_space_group_name_H-M "P 63/m 2/m 2/c"
_symmetry_space_group_name_Hall '-P 6c 2c'
_[local]_omdb_cod_original_Hall '-P 6c 2c'
_symmetry_Int_Tables_number 194
 
_cell_length_a    3.23603
_cell_length_b    3.23603
_cell_length_c    5.18953
_cell_angle_alpha 90.00000
_cell_angle_beta  90.00000
_cell_angle_gamma 120.00000
 
loop_
_space_group_symop_id
_space_group_symop_operation_xyz
1 x,y,z
2 x-y,x,z+1/2
3 -y,x-y,z
4 -x,-y,z+1/2
5 -x+y,-x,z
6 y,-x+y,z+1/2
7 x-y,-y,-z
8 x,x-y,-z+1/2
9 y,x,-z
10 -x+y,y,-z+1/2
11 -x,-x+y,-z
12 -y,-x,-z+1/2
13 -x,-y,-z
14 -x+y,-x,-z+1/2
15 y,-x+y,-z
16 x,y,-z+1/2
17 x-y,x,-z
18 -y,x-y,-z+1/2
19 -x+y,y,z
20 -x,-x+y,z+1/2
21 -y,-x,z
22 x-y,-y,z+1/2
23 x,x-y,z
24 y,x,z+1/2
 
loop_
_atom_site_label
_atom_site_type_symbol
_atom_site_symmetry_multiplicity
_atom_site_Wyckoff_label
_atom_site_fract_x
_atom_site_fract_y
_atom_site_fract_z
_atom_site_occupancy
Zr1 Zr 2 c 0.33333 0.66667 0.25000 1.0
 

