# CIF file
# This is a cif file prepared for use with the openmaterialsdb.se
#
# The cif file was imported from the Crystallography Open Database (COD)
# http://www.crystallography.net/
# based on data placed in the public domain by the contributors.
#
# The original file in cod had 
#COD-MD5: d7ee9f96b704b79e59c3ef907f788f5b
#
# It was then processed with the FINDSYM tool by
# Harold T. Stokes, Branton J. Campbell, Dorian M. Hatch
# Brigham Young University, Provo, Utah, USA
# which was used to update the structure information.
#
# The original header in COD and relevant COD data follows:
#------------------------------------------------------------------------------
#$Date: 2014-07-12 04:06:18 +0000 (Sat, 12 Jul 2014) $
#$Revision: 120112 $
#$URL: file:///home/coder/svn-repositories/cod/cif/7/20/27/7202756.cif $
#------------------------------------------------------------------------------
data_7202756
loop_
_publ_author_name
'Bromley, Stefan T.'
_publ_section_title
;
 A computational study into the viability of new molecular materials
 polymorphs based on fully-coordinated inorganic nanoclusters
;
_journal_issue                   6
_journal_name_full               CrystEngComm
_journal_page_first              463
_journal_volume                  9
_journal_year                    2007
_[local]_cod_data_source_file    b701689a.txt
_[local]_cod_data_source_block   block_1
_cod_database_code               7202756
_journal_paper_doi 10.1039/b701689a

#
# Data extracted using the FINDSYM utility follows
#
 
_audit_creation_method FINDSYM
 
_symmetry_space_group_name_H-M "I 2/b 2/a 2/m"
_symmetry_space_group_name_Hall '-I 2 2c'
_[local]_omdb_cod_original_Hall 'P 1'
_symmetry_Int_Tables_number 72
 
_cell_length_a    8.24850
_cell_length_b    5.14350
_cell_length_c    4.71700
_cell_angle_alpha 90.00000
_cell_angle_beta  90.00000
_cell_angle_gamma 90.00000
 
loop_
_space_group_symop_id
_space_group_symop_operation_xyz
1 x,y,z
2 x,-y,-z+1/2
3 -x,y,-z+1/2
4 -x,-y,z
5 -x,-y,-z
6 -x,y,z+1/2
7 x,-y,z+1/2
8 x,y,-z
9 x+1/2,y+1/2,z+1/2
10 x+1/2,-y+1/2,-z
11 -x+1/2,y+1/2,-z
12 -x+1/2,-y+1/2,z+1/2
13 -x+1/2,-y+1/2,-z+1/2
14 -x+1/2,y+1/2,z
15 x+1/2,-y+1/2,z
16 x+1/2,y+1/2,-z+1/2
 
loop_
_atom_site_label
_atom_site_type_symbol
_atom_site_symmetry_multiplicity
_atom_site_Wyckoff_label
_atom_site_fract_x
_atom_site_fract_y
_atom_site_fract_z
_atom_site_occupancy
Si1 Si 4 a 0.00000 0.00000 0.25000 1.0
O1 O 8 j 0.60100 0.66460 0.00000 1.0
 

