LWAVE=.FALSE.
LCHARG=.TRUE.
ISTART=1
ICHARG=1
LORBIT=11
LMAXMIX=6

ISPIN=2

ALGO=Normal
PREC=Accurate
ENCUT=700
ENAUG=900
LREAL=.FALSE.
LASPH=.TRUE.
ADDGRID=.FALSE.
SYMPREC=1e-5

ISMEAR=0
SIGMA=0.05

# EDIFF AND EDIFFG IS SET BY VASP_PREPARE_INCAR
NELMIN=5
MAXMIX=80
NELM=40
NFREE=10

# No relaxations, just get the stress tensor:
NSW=40
IBRION=1
ISIF=2

# Parallelization options:
NCORE=1

EDIFFG=-0.001
