#------------------------------------------------------------------------------
#$Date: 2013-10-30 09:48:03 +0000 (Wed, 30 Oct 2013) $
#$Revision: 89429 $
#$URL: file:///home/coder/svn-repositories/cod/cif/1/51/24/1512490.cif $
#------------------------------------------------------------------------------
#
# This file is available in the Crystallography Open Database (COD),
# http://www.crystallography.net/
#
# All data on this site have been placed in the public domain by the
# contributors.
#
data_1512490
loop_
_publ_author_name
'Lejaeghere, K.'
'Van Speybroeck, V.'
'Van Oost, G.'
'Cottenier, S.'
_publ_section_title
;
 Error Estimates for Solid-State Density-Functional Theory Predictions: An
 Overview by Means of the Ground-State Elemental Crystals
;
_journal_issue                   1
_journal_name_full
'Critical Reviews in Solid State and Materials Sciences'
_journal_page_first              1
_journal_paper_doi               10.1080/10408436.2013.772503
_journal_volume                  39
_journal_year                    2014
_chemical_formula_sum            As
_space_group_IT_number           166
_symmetry_Int_Tables_number      166
_symmetry_space_group_name_Hall  '-P 3* 2'
_symmetry_space_group_name_H-M   'R -3 m :R'
_cell_angle_alpha                53.84312
_cell_angle_beta                 53.84312
_cell_angle_gamma                53.84312
_cell_formula_units_Z            2
_cell_length_a                   4.21908
_cell_length_b                   4.21908
_cell_length_c                   4.21908
_cell_volume                     45.464
_[local]_cod_data_source_file    As.cif
_[local]_cod_data_source_block   VESTA_phase_1
_[local]_cod_cif_authors_sg_H-M  'R -3 m'
_cod_database_code               1512490
loop_
_symmetry_equiv_pos_as_xyz
'x, y, z'
'-x, -y, -z'
'z, x, y'
'-z, -x, -y'
'y, z, x'
'-y, -z, -x'
'-y, -x, -z'
'y, x, z'
'-x, -z, -y'
'x, z, y'
'-z, -y, -x'
'z, y, x'
loop_
_atom_site_label
_atom_site_occupancy
_atom_site_fract_x
_atom_site_fract_y
_atom_site_fract_z
_atom_site_adp_type
_atom_site_B_iso_or_equiv
_atom_site_type_symbol
As001 1.0 0.273429 0.273429 0.273429 Biso 1.000000 As
