ENCUT=400
ISMEAR = 1
SIGMA = 0.1
PREC = Accurate
NELMIN = 2
NSW    =  20
IBRION =  2
ISIF = 7
ISPIN = 1
LWAVE = .FALSE.
LCHARG = .FALSE.
LORBIT=10
